c nIsolatedPIs 0
c maxPI 32
p cnf 329 892
c gate 33 6 22 0
6 -33 0
22 -33 0
-6 -22 33 0
c gate 34 6 -22 0
6 -34 0
-22 -34 0
-6 22 34 0
c gate 35 -6 22 0
-6 -35 0
22 -35 0
6 -22 35 0
c gate 36 -34 -35 0
-34 -36 0
-35 -36 0
34 35 36 0
c gate 37 5 21 0
5 -37 0
21 -37 0
-5 -21 37 0
c gate 38 -5 21 0
-5 -38 0
21 -38 0
5 -21 38 0
c gate 39 5 -21 0
5 -39 0
-21 -39 0
-5 21 39 0
c gate 40 -38 -39 0
-38 -40 0
-39 -40 0
38 39 40 0
c gate 41 -4 -20 0
-4 -41 0
-20 -41 0
4 20 41 0
c gate 42 4 20 0
4 -42 0
20 -42 0
-4 -20 42 0
c gate 43 -41 -42 0
-41 -43 0
-42 -43 0
41 42 43 0
c gate 44 3 19 0
3 -44 0
19 -44 0
-3 -19 44 0
c gate 45 -3 19 0
-3 -45 0
19 -45 0
3 -19 45 0
c gate 46 3 -19 0
3 -46 0
-19 -46 0
-3 19 46 0
c gate 47 -45 -46 0
-45 -47 0
-46 -47 0
45 46 47 0
c gate 48 -2 18 0
-2 -48 0
18 -48 0
2 -18 48 0
c gate 49 2 -18 0
2 -49 0
-18 -49 0
-2 18 49 0
c gate 50 -48 -49 0
-48 -50 0
-49 -50 0
48 49 50 0
c gate 51 1 17 0
1 -51 0
17 -51 0
-1 -17 51 0
c gate 52 -50 51 0
-50 -52 0
51 -52 0
50 -51 52 0
c gate 53 2 18 0
2 -53 0
18 -53 0
-2 -18 53 0
c gate 54 -52 -53 0
-52 -54 0
-53 -54 0
52 53 54 0
c gate 55 -47 -54 0
-47 -55 0
-54 -55 0
47 54 55 0
c gate 56 -44 -55 0
-44 -56 0
-55 -56 0
44 55 56 0
c gate 57 43 56 0
43 -57 0
56 -57 0
-43 -56 57 0
c gate 58 -41 -57 0
-41 -58 0
-57 -58 0
41 57 58 0
c gate 59 -40 58 0
-40 -59 0
58 -59 0
40 -58 59 0
c gate 60 -37 -59 0
-37 -60 0
-59 -60 0
37 59 60 0
c gate 61 -36 -60 0
-36 -61 0
-60 -61 0
36 60 61 0
c gate 62 -33 -61 0
-33 -62 0
-61 -62 0
33 61 62 0
c gate 63 7 23 0
7 -63 0
23 -63 0
-7 -23 63 0
c gate 64 -7 -23 0
-7 -64 0
-23 -64 0
7 23 64 0
c gate 65 -63 -64 0
-63 -65 0
-64 -65 0
63 64 65 0
c gate 66 -62 65 0
-62 -66 0
65 -66 0
62 -65 66 0
c gate 67 62 -65 0
62 -67 0
-65 -67 0
-62 65 67 0
c gate 68 -66 -67 0
-66 -68 0
-67 -68 0
66 67 68 0
c gate 69 -6 -22 0
-6 -69 0
-22 -69 0
6 22 69 0
c gate 70 18 -54 0
18 -70 0
-54 -70 0
-18 54 70 0
c gate 71 -44 -70 0
-44 -71 0
-70 -71 0
44 70 71 0
c gate 72 43 -71 0
43 -72 0
-71 -72 0
-43 71 72 0
c gate 73 -42 -72 0
-42 -73 0
-72 -73 0
42 72 73 0
c gate 74 -37 73 0
-37 -74 0
73 -74 0
37 -73 74 0
c gate 75 -69 -74 0
-69 -75 0
-74 -75 0
69 74 75 0
c gate 76 -65 75 0
-65 -76 0
75 -76 0
65 -75 76 0
c gate 77 65 -75 0
65 -77 0
-75 -77 0
-65 75 77 0
c gate 78 -76 -77 0
-76 -78 0
-77 -78 0
76 77 78 0
c gate 79 -68 -78 0
-68 -79 0
-78 -79 0
68 78 79 0
c gate 80 68 78 0
68 -80 0
78 -80 0
-68 -78 80 0
c gate 81 -79 -80 0
-79 -81 0
-80 -81 0
79 80 81 0
c gate 82 -12 28 0
-12 -82 0
28 -82 0
12 -28 82 0
c gate 83 12 -28 0
12 -83 0
-28 -83 0
-12 28 83 0
c gate 84 -11 27 0
-11 -84 0
27 -84 0
11 -27 84 0
c gate 85 11 -27 0
11 -85 0
-27 -85 0
-11 27 85 0
c gate 86 -10 26 0
-10 -86 0
26 -86 0
10 -26 86 0
c gate 87 10 -26 0
10 -87 0
-26 -87 0
-10 26 87 0
c gate 88 -9 25 0
-9 -88 0
25 -88 0
9 -25 88 0
c gate 89 8 -24 0
8 -89 0
-24 -89 0
-8 24 89 0
c gate 90 9 -25 0
9 -90 0
-25 -90 0
-9 25 90 0
c gate 91 -89 -90 0
-89 -91 0
-90 -91 0
89 90 91 0
c gate 92 7 -23 0
7 -92 0
-23 -92 0
-7 23 92 0
c gate 93 -4 20 0
-4 -93 0
20 -93 0
4 -20 93 0
c gate 94 -1 17 0
-1 -94 0
17 -94 0
1 -17 94 0
c gate 95 -48 -94 0
-48 -95 0
-94 -95 0
48 94 95 0
c gate 96 -46 -49 0
-46 -96 0
-49 -96 0
46 49 96 0
c gate 97 -95 96 0
-95 -97 0
96 -97 0
95 -96 97 0
c gate 98 -45 -97 0
-45 -98 0
-97 -98 0
45 97 98 0
c gate 99 -93 98 0
-93 -99 0
98 -99 0
93 -98 99 0
c gate 100 4 -20 0
4 -100 0
-20 -100 0
-4 20 100 0
c gate 101 -39 -100 0
-39 -101 0
-100 -101 0
39 100 101 0
c gate 102 -99 101 0
-99 -102 0
101 -102 0
99 -101 102 0
c gate 103 -38 -102 0
-38 -103 0
-102 -103 0
38 102 103 0
c gate 104 -34 -103 0
-34 -104 0
-103 -104 0
34 103 104 0
c gate 105 -35 -104 0
-35 -105 0
-104 -105 0
35 104 105 0
c gate 106 -92 -105 0
-92 -106 0
-105 -106 0
92 105 106 0
c gate 107 -7 23 0
-7 -107 0
23 -107 0
7 -23 107 0
c gate 108 -8 24 0
-8 -108 0
24 -108 0
8 -24 108 0
c gate 109 -107 -108 0
-107 -109 0
-108 -109 0
107 108 109 0
c gate 110 -106 109 0
-106 -110 0
109 -110 0
106 -109 110 0
c gate 111 91 -110 0
91 -111 0
-110 -111 0
-91 110 111 0
c gate 112 -88 -111 0
-88 -112 0
-111 -112 0
88 111 112 0
c gate 113 -87 -112 0
-87 -113 0
-112 -113 0
87 112 113 0
c gate 114 -86 -113 0
-86 -114 0
-113 -114 0
86 113 114 0
c gate 115 -85 -114 0
-85 -115 0
-114 -115 0
85 114 115 0
c gate 116 -84 -115 0
-84 -116 0
-115 -116 0
84 115 116 0
c gate 117 -83 -116 0
-83 -117 0
-116 -117 0
83 116 117 0
c gate 118 -82 -117 0
-82 -118 0
-117 -118 0
82 117 118 0
c gate 119 13 29 0
13 -119 0
29 -119 0
-13 -29 119 0
c gate 120 -13 -29 0
-13 -120 0
-29 -120 0
13 29 120 0
c gate 121 -119 -120 0
-119 -121 0
-120 -121 0
119 120 121 0
c gate 122 118 -121 0
118 -122 0
-121 -122 0
-118 121 122 0
c gate 123 -118 121 0
-118 -123 0
121 -123 0
118 -121 123 0
c gate 124 -122 -123 0
-122 -124 0
-123 -124 0
122 123 124 0
c gate 125 -98 100 0
-98 -125 0
100 -125 0
98 -100 125 0
c gate 126 36 40 0
36 -126 0
40 -126 0
-36 -40 126 0
c gate 127 125 126 0
125 -127 0
126 -127 0
-125 -126 127 0
c gate 128 -92 127 0
-92 -128 0
127 -128 0
92 -127 128 0
c gate 129 110 -128 0
110 -129 0
-128 -129 0
-110 128 129 0
c gate 130 91 -129 0
91 -130 0
-129 -130 0
-91 129 130 0
c gate 131 -88 -130 0
-88 -131 0
-130 -131 0
88 130 131 0
c gate 132 -87 -131 0
-87 -132 0
-131 -132 0
87 131 132 0
c gate 133 -86 -132 0
-86 -133 0
-132 -133 0
86 132 133 0
c gate 134 -82 -84 0
-82 -134 0
-84 -134 0
82 84 134 0
c gate 135 133 134 0
133 -135 0
134 -135 0
-133 -134 135 0
c gate 136 -83 -135 0
-83 -136 0
-135 -136 0
83 135 136 0
c gate 137 -121 136 0
-121 -137 0
136 -137 0
121 -136 137 0
c gate 138 121 -136 0
121 -138 0
-136 -138 0
-121 136 138 0
c gate 139 -137 -138 0
-137 -139 0
-138 -139 0
137 138 139 0
c gate 140 124 139 0
124 -140 0
139 -140 0
-124 -139 140 0
c gate 141 -82 -83 0
-82 -141 0
-83 -141 0
82 83 141 0
c gate 142 -133 -141 0
-133 -142 0
-141 -142 0
133 141 142 0
c gate 143 116 142 0
116 -143 0
142 -143 0
-116 -142 143 0
c gate 144 -140 -143 0
-140 -144 0
-143 -144 0
140 143 144 0
c gate 145 -124 -139 0
-124 -145 0
-139 -145 0
124 139 145 0
c gate 146 144 -145 0
144 -146 0
-145 -146 0
-144 145 146 0
c gate 147 14 30 0
14 -147 0
30 -147 0
-14 -30 147 0
c gate 148 -12 -28 0
-12 -148 0
-28 -148 0
12 28 148 0
c gate 149 11 27 0
11 -149 0
27 -149 0
-11 -27 149 0
c gate 150 -84 -85 0
-84 -150 0
-85 -150 0
84 85 150 0
c gate 151 -9 -25 0
-9 -151 0
-25 -151 0
9 25 151 0
c gate 152 9 25 0
9 -152 0
25 -152 0
-9 -25 152 0
c gate 153 -151 -152 0
-151 -153 0
-152 -153 0
151 152 153 0
c gate 154 8 24 0
8 -154 0
24 -154 0
-8 -24 154 0
c gate 155 -8 -24 0
-8 -155 0
-24 -155 0
8 24 155 0
c gate 156 -63 -66 0
-63 -156 0
-66 -156 0
63 66 156 0
c gate 157 -155 -156 0
-155 -157 0
-156 -157 0
155 156 157 0
c gate 158 -154 -157 0
-154 -158 0
-157 -158 0
154 157 158 0
c gate 159 153 158 0
153 -159 0
158 -159 0
-153 -158 159 0
c gate 160 -151 -159 0
-151 -160 0
-159 -160 0
151 159 160 0
c gate 161 10 160 0
10 -161 0
160 -161 0
-10 -160 161 0
c gate 162 -86 -87 0
-86 -162 0
-87 -162 0
86 87 162 0
c gate 163 -160 -162 0
-160 -163 0
-162 -163 0
160 162 163 0
c gate 164 26 -163 0
26 -164 0
-163 -164 0
-26 163 164 0
c gate 165 -161 -164 0
-161 -165 0
-164 -165 0
161 164 165 0
c gate 166 -150 -165 0
-150 -166 0
-165 -166 0
150 165 166 0
c gate 167 -149 -166 0
-149 -167 0
-166 -167 0
149 166 167 0
c gate 168 -148 -167 0
-148 -168 0
-167 -168 0
148 167 168 0
c gate 169 12 28 0
12 -169 0
28 -169 0
-12 -28 169 0
c gate 170 -119 -169 0
-119 -170 0
-169 -170 0
119 169 170 0
c gate 171 -168 170 0
-168 -171 0
170 -171 0
168 -170 171 0
c gate 172 -14 -30 0
-14 -172 0
-30 -172 0
14 30 172 0
c gate 173 -120 -172 0
-120 -173 0
-172 -173 0
120 172 173 0
c gate 174 -171 173 0
-171 -174 0
173 -174 0
171 -173 174 0
c gate 175 -147 -174 0
-147 -175 0
-174 -175 0
147 174 175 0
c gate 176 -16 -32 0
-16 -176 0
-32 -176 0
16 32 176 0
c gate 177 16 32 0
16 -177 0
32 -177 0
-16 -32 177 0
c gate 178 -176 -177 0
-176 -178 0
-177 -178 0
176 177 178 0
c gate 179 15 31 0
15 -179 0
31 -179 0
-15 -31 179 0
c gate 180 -64 75 0
-64 -180 0
75 -180 0
64 -75 180 0
c gate 181 -154 -180 0
-154 -181 0
-180 -181 0
154 180 181 0
c gate 182 153 -181 0
153 -182 0
-181 -182 0
-153 181 182 0
c gate 183 -152 -182 0
-152 -183 0
-182 -183 0
152 182 183 0
c gate 184 10 -183 0
10 -184 0
-183 -184 0
-10 183 184 0
c gate 185 -162 183 0
-162 -185 0
183 -185 0
162 -183 185 0
c gate 186 26 -185 0
26 -186 0
-185 -186 0
-26 185 186 0
c gate 187 -184 -186 0
-184 -187 0
-186 -187 0
184 186 187 0
c gate 188 -150 -187 0
-150 -188 0
-187 -188 0
150 187 188 0
c gate 189 -149 -188 0
-149 -189 0
-188 -189 0
149 188 189 0
c gate 190 -141 -189 0
-141 -190 0
-189 -190 0
141 189 190 0
c gate 191 -169 -190 0
-169 -191 0
-190 -191 0
169 190 191 0
c gate 192 -120 -191 0
-120 -192 0
-191 -192 0
120 191 192 0
c gate 193 -119 -147 0
-119 -193 0
-147 -193 0
119 147 193 0
c gate 194 -192 193 0
-192 -194 0
193 -194 0
192 -193 194 0
c gate 195 -15 -31 0
-15 -195 0
-31 -195 0
15 31 195 0
c gate 196 -172 -195 0
-172 -196 0
-195 -196 0
172 195 196 0
c gate 197 -194 196 0
-194 -197 0
196 -197 0
194 -196 197 0
c gate 198 -179 -197 0
-179 -198 0
-197 -198 0
179 197 198 0
c gate 199 178 198 0
178 -199 0
198 -199 0
-178 -198 199 0
c gate 200 -178 -198 0
-178 -200 0
-198 -200 0
178 198 200 0
c gate 201 -199 -200 0
-199 -201 0
-200 -201 0
199 200 201 0
c gate 202 -179 -195 0
-179 -202 0
-195 -202 0
179 195 202 0
c gate 203 -175 202 0
-175 -203 0
202 -203 0
175 -202 203 0
c gate 204 -179 -203 0
-179 -204 0
-203 -204 0
179 203 204 0
c gate 205 -178 204 0
-178 -205 0
204 -205 0
178 -204 205 0
c gate 206 178 -204 0
178 -206 0
-204 -206 0
-178 204 206 0
c gate 207 -205 -206 0
-205 -207 0
-206 -207 0
205 206 207 0
c gate 208 201 207 0
201 -208 0
207 -208 0
-201 -207 208 0
c gate 209 175 208 0
175 -209 0
208 -209 0
-175 -208 209 0
c gate 210 -125 -209 0
-125 -210 0
-209 -210 0
125 209 210 0
c gate 211 199 203 0
199 -211 0
203 -211 0
-199 -203 211 0
c gate 212 210 -211 0
210 -212 0
-211 -212 0
-210 211 212 0
c gate 213 -153 181 0
-153 -213 0
181 -213 0
153 -181 213 0
c gate 214 -182 -213 0
-182 -214 0
-213 -214 0
182 213 214 0
c gate 215 -153 -158 0
-153 -215 0
-158 -215 0
153 158 215 0
c gate 216 -159 -215 0
-159 -216 0
-215 -216 0
159 215 216 0
c gate 217 214 216 0
214 -217 0
216 -217 0
-214 -216 217 0
c gate 218 -214 -216 0
-214 -218 0
-216 -218 0
214 216 218 0
c gate 219 -217 -218 0
-217 -219 0
-218 -219 0
217 218 219 0
c gate 220 157 181 0
157 -220 0
181 -220 0
-157 -181 220 0
c gate 221 36 60 0
36 -221 0
60 -221 0
-36 -60 221 0
c gate 222 -61 -221 0
-61 -222 0
-221 -222 0
61 221 222 0
c gate 223 36 74 0
36 -223 0
74 -223 0
-36 -74 223 0
c gate 224 -36 -74 0
-36 -224 0
-74 -224 0
36 74 224 0
c gate 225 -223 -224 0
-223 -225 0
-224 -225 0
223 224 225 0
c gate 226 -222 225 0
-222 -226 0
225 -226 0
222 -225 226 0
c gate 227 40 -58 0
40 -227 0
-58 -227 0
-40 58 227 0
c gate 228 -59 -227 0
-59 -228 0
-227 -228 0
59 227 228 0
c gate 229 40 73 0
40 -229 0
73 -229 0
-40 -73 229 0
c gate 230 -40 -73 0
-40 -230 0
-73 -230 0
40 73 230 0
c gate 231 -229 -230 0
-229 -231 0
-230 -231 0
229 230 231 0
c gate 232 228 -231 0
228 -232 0
-231 -232 0
-228 231 232 0
c gate 233 222 -225 0
222 -233 0
-225 -233 0
-222 225 233 0
c gate 234 -226 -233 0
-226 -234 0
-233 -234 0
226 233 234 0
c gate 235 -232 234 0
-232 -235 0
234 -235 0
232 -234 235 0
c gate 236 -226 -235 0
-226 -236 0
-235 -236 0
226 235 236 0
c gate 237 -80 -236 0
-80 -237 0
-236 -237 0
80 236 237 0
c gate 238 18 -47 0
18 -238 0
-47 -238 0
-18 47 238 0
c gate 239 -54 -238 0
-54 -239 0
-238 -239 0
54 238 239 0
c gate 240 -228 231 0
-228 -240 0
231 -240 0
228 -231 240 0
c gate 241 -43 -56 0
-43 -241 0
-56 -241 0
43 56 241 0
c gate 242 -57 -241 0
-57 -242 0
-241 -242 0
57 241 242 0
c gate 243 -43 71 0
-43 -243 0
71 -243 0
43 -71 243 0
c gate 244 -72 -243 0
-72 -244 0
-243 -244 0
72 243 244 0
c gate 245 242 244 0
242 -245 0
244 -245 0
-242 -244 245 0
c gate 246 -2 55 0
-2 -246 0
55 -246 0
2 -55 246 0
c gate 247 -245 -246 0
-245 -247 0
-246 -247 0
245 246 247 0
c gate 248 -232 -247 0
-232 -248 0
-247 -248 0
232 247 248 0
c gate 249 -240 -248 0
-240 -249 0
-248 -249 0
240 248 249 0
c gate 250 235 249 0
235 -250 0
249 -250 0
-235 -249 250 0
c gate 251 239 250 0
239 -251 0
250 -251 0
-239 -250 251 0
c gate 252 237 -251 0
237 -252 0
-251 -252 0
-237 251 252 0
c gate 253 -79 -252 0
-79 -253 0
-252 -253 0
79 252 253 0
c gate 254 -220 253 0
-220 -254 0
253 -254 0
220 -253 254 0
c gate 255 -154 -155 0
-154 -255 0
-155 -255 0
154 155 255 0
c gate 256 180 255 0
180 -256 0
255 -256 0
-180 -255 256 0
c gate 257 156 -256 0
156 -257 0
-256 -257 0
-156 256 257 0
c gate 258 -156 255 0
-156 -258 0
255 -258 0
156 -255 258 0
c gate 259 -257 -258 0
-257 -259 0
-258 -259 0
257 258 259 0
c gate 260 -254 -259 0
-254 -260 0
-259 -260 0
254 259 260 0
c gate 261 219 260 0
219 -261 0
260 -261 0
-219 -260 261 0
c gate 262 150 187 0
150 -262 0
187 -262 0
-150 -187 262 0
c gate 263 -188 -262 0
-188 -263 0
-262 -263 0
188 262 263 0
c gate 264 150 165 0
150 -264 0
165 -264 0
-150 -165 264 0
c gate 265 -166 -264 0
-166 -265 0
-264 -265 0
166 264 265 0
c gate 266 263 -265 0
263 -266 0
-265 -266 0
-263 265 266 0
c gate 267 -263 265 0
-263 -267 0
265 -267 0
263 -265 267 0
c gate 268 -266 -267 0
-266 -268 0
-267 -268 0
266 267 268 0
c gate 269 -150 -268 0
-150 -269 0
-268 -269 0
150 268 269 0
c gate 270 141 189 0
141 -270 0
189 -270 0
-141 -189 270 0
c gate 271 -190 -270 0
-190 -271 0
-270 -271 0
190 270 271 0
c gate 272 269 -271 0
269 -272 0
-271 -272 0
-269 271 272 0
c gate 273 160 162 0
160 -273 0
162 -273 0
-160 -162 273 0
c gate 274 -163 -273 0
-163 -274 0
-273 -274 0
163 273 274 0
c gate 275 218 -274 0
218 -275 0
-274 -275 0
-218 274 275 0
c gate 276 -218 274 0
-218 -276 0
274 -276 0
218 -274 276 0
c gate 277 162 -183 0
162 -277 0
-183 -277 0
-162 183 277 0
c gate 278 -185 -277 0
-185 -278 0
-277 -278 0
185 277 278 0
c gate 279 -276 278 0
-276 -279 0
278 -279 0
276 -278 279 0
c gate 280 -275 -279 0
-275 -280 0
-279 -280 0
275 279 280 0
c gate 281 -267 280 0
-267 -281 0
280 -281 0
267 -280 281 0
c gate 282 -266 -281 0
-266 -282 0
-281 -282 0
266 281 282 0
c gate 283 -269 282 0
-269 -283 0
282 -283 0
269 -282 283 0
c gate 284 -272 -283 0
-272 -284 0
-283 -284 0
272 283 284 0
c gate 285 -219 284 0
-219 -285 0
284 -285 0
219 -284 285 0
c gate 286 -141 269 0
-141 -286 0
269 -286 0
141 -269 286 0
c gate 287 -285 -286 0
-285 -287 0
-286 -287 0
285 286 287 0
c gate 288 -201 -207 0
-201 -288 0
-207 -288 0
201 207 288 0
c gate 289 175 -202 0
175 -289 0
-202 -289 0
-175 202 289 0
c gate 290 -147 -172 0
-147 -290 0
-172 -290 0
147 172 290 0
c gate 291 -203 290 0
-203 -291 0
290 -291 0
203 -290 291 0
c gate 292 -289 291 0
-289 -292 0
291 -292 0
289 -291 292 0
c gate 293 191 -290 0
191 -293 0
-290 -293 0
-191 290 293 0
c gate 294 121 -293 0
121 -294 0
-293 -294 0
-121 293 294 0
c gate 295 -292 294 0
-292 -295 0
294 -295 0
292 -294 295 0
c gate 296 -121 -187 0
-121 -296 0
-187 -296 0
121 187 296 0
c gate 297 286 -296 0
286 -297 0
-296 -297 0
-286 296 297 0
c gate 298 -295 297 0
-295 -298 0
297 -298 0
295 -297 298 0
c gate 299 -208 -298 0
-208 -299 0
-298 -299 0
208 298 299 0
c gate 300 -288 -299 0
-288 -300 0
-299 -300 0
288 299 300 0
c gate 301 -287 -300 0
-287 -301 0
-300 -301 0
287 300 301 0
c gate 302 -261 -301 0
-261 -302 0
-301 -302 0
261 301 302 0
c gate 303 212 302 0
212 -303 0
302 -303 0
-212 -302 303 0
c gate 304 -127 -210 0
-127 -304 0
-210 -304 0
127 210 304 0
c gate 305 114 -150 0
114 -305 0
-150 -305 0
-114 150 305 0
c gate 306 -133 305 0
-133 -306 0
305 -306 0
133 -305 306 0
c gate 307 -153 162 0
-153 -307 0
162 -307 0
153 -162 307 0
c gate 308 -255 307 0
-255 -308 0
307 -308 0
255 -307 308 0
c gate 309 105 -308 0
105 -309 0
-308 -309 0
-105 308 309 0
c gate 310 -65 -309 0
-65 -310 0
-309 -310 0
65 309 310 0
c gate 311 127 -310 0
127 -311 0
-310 -311 0
-127 310 311 0
c gate 312 -306 -311 0
-306 -312 0
-311 -312 0
306 311 312 0
c gate 313 -304 312 0
-304 -313 0
312 -313 0
304 -312 313 0
c gate 314 -303 313 0
-303 -314 0
313 -314 0
303 -313 314 0
c gate 315 146 -314 0
146 -315 0
-314 -315 0
-146 314 315 0
c gate 316 118 137 0
118 -316 0
137 -316 0
-118 -137 316 0
c gate 317 -178 -202 0
-178 -317 0
-202 -317 0
178 202 317 0
c gate 318 -290 317 0
-290 -318 0
317 -318 0
290 -317 318 0
c gate 319 316 -318 0
316 -319 0
-318 -319 0
-316 318 319 0
c gate 320 144 -319 0
144 -320 0
-319 -320 0
-144 319 320 0
c gate 321 -315 320 0
-315 -321 0
320 -321 0
315 -320 321 0
c gate 322 -236 -251 0
-236 -322 0
-251 -322 0
236 251 322 0
c gate 323 321 -322 0
321 -323 0
-322 -323 0
-321 322 323 0
c gate 324 -236 -250 0
-236 -324 0
-250 -324 0
236 250 324 0
c gate 325 -321 324 0
-321 -325 0
324 -325 0
321 -324 325 0
c gate 326 -323 -325 0
-323 -326 0
-325 -326 0
323 325 326 0
c gate 327 81 -326 0
81 -327 0
-326 -327 0
-81 326 327 0
c gate 328 -81 326 0
-81 -328 0
326 -328 0
81 -326 328 0
c gate 329 -327 -328 0
-327 -329 0
-328 -329 0
327 328 329 0
c PO
-329 0
